g3 0 1 0	# problem ex1233
 52 64 1 0 20	# vars, constraints, objectives, ranges, eqns
 0 1	# nonlinear constraints, objectives
 0 0	# network constraints: nonlinear, linear
 0 28 0	# nonlinear vars in constraints, objectives, both
 0 0 0 1	# linear network variables; functions; arith, flags
 12 0 0 0 0	# discrete variables: binary, integer, nonlinear (b,c,o)
 180 40	# nonzeros in Jacobian, gradients
 3 3	# max name lengths: constraints, variables
 0 0 0 0 0	# common exprs: b,c,o,c1,o1
b
2 0
2 0
2 0
2 0
2 0
2 0
2 0
2 0
2 0
2 0
2 0
2 0
2 10
2 10
2 10
2 10
2 10
2 10
2 10
2 10
2 10
2 10
2 10
2 10
2 10
2 10
2 10
2 10
0 3.7e2 6.5e2
0 3.7e2 6.5e2
0 3.7e2 6.5e2
0 3.7e2 5.9e2
0 3.7e2 5.9e2
0 3.7e2 5.9e2
0 4.1e2 6.5e2
0 4.1e2 6.5e2
0 4.1e2 6.5e2
0 3.5e2 500
0 3.5e2 500
0 3.5e2 500
0 0 1
0 0 1
0 0 1
0 0 1
0 0 1
0 0 1
0 0 1
0 0 1
0 0 1
0 0 1
0 0 1
0 0 1
x28
12 10
13 10
14 10
15 10
16 10
17 10
18 10
19 10
20 10
21 10
22 10
23 10
24 10
25 10
26 10
27 10
28 3.7e2
29 3.7e2
30 3.7e2
31 3.7e2
32 3.7e2
33 3.7e2
34 4.1e2
35 4.1e2
36 4.1e2
37 3.5e2
38 3.5e2
39 3.5e2
r
4 2.8e3
4 4.4e3
4 3.6e3
4 1.95e3
4 0
4 0
4 0
4 0
4 0
4 0
4 0
4 0
4 6.5e2
4 5.9e2
4 4.1e2
4 3.5e2
1 0
1 0
1 0
1 0
1 0
1 0
1 0
1 0
1 -3.7e2
1 -3.7e2
1 6.5e2
1 500
4 3.7e3
4 7.4e3
4 9.75e3
4 6.5e3
1 0
1 0
1 0
1 0
1 0
1 0
1 0
1 0
1 0
1 0
1 0
1 0
1 2.8e2
1 1.3e2
1 2.8e2
1 1.5e2
1 2.8e2
1 1.3e2
1 2.8e2
1 1.5e2
1 2.8e2
1 1.3e2
1 2.8e2
1 1.5e2
1 2.8e2
1 1.3e2
1 2.8e2
1 1.5e2
1 -3.2e2
1 -3.2e2
1 6.8e2
1 6.8e2
C0
n0
C1
n0
C2
n0
C3
n0
C4
n0
C5
n0
C6
n0
C7
n0
C8
n0
C9
n0
C10
n0
C11
n0
C12
n0
C13
n0
C14
n0
C15
n0
C16
n0
C17
n0
C18
n0
C19
n0
C20
n0
C21
n0
C22
n0
C23
n0
C24
n0
C25
n0
C26
n0
C27
n0
C28
n0
C29
n0
C30
n0
C31
n0
C32
n0
C33
n0
C34
n0
C35
n0
C36
n0
C37
n0
C38
n0
C39
n0
C40
n0
C41
n0
C42
n0
C43
n0
C44
n0
C45
n0
C46
n0
C47
n0
C48
n0
C49
n0
C50
n0
C51
n0
C52
n0
C53
n0
C54
n0
C55
n0
C56
n0
C57
n0
C58
n0
C59
n0
C60
n0
C61
n0
C62
n0
C63
n0
O0 0
o54
16
o3
o2
n300
v0
o5
o2
o2
o2
n.5
v12
v13
o0
v12
v13
n.3333
o3
o2
n300
v1
o5
o2
o2
o2
n.5
v13
v14
o0
v13
v14
n.3333
o3
o2
n300
v2
o5
o2
o2
o2
n.5
v15
v16
o0
v15
v16
n.3333
o3
o2
n300
v3
o5
o2
o2
o2
n.5
v16
v17
o0
v16
v17
n.3333
o3
o2
n300
v4
o5
o2
o2
o2
n.5
v18
v19
o0
v18
v19
n.3333
o3
o2
n300
v5
o5
o2
o2
o2
n.5
v19
v20
o0
v19
v20
n.3333
o3
o2
n300
v6
o5
o2
o2
o2
n.5
v21
v22
o0
v21
v22
n.3333
o3
o2
n300
v7
o5
o2
o2
o2
n.5
v22
v23
o0
v22
v23
n.3333
o3
o2
n300
v8
o5
o2
o2
n35
v24
o0
n70
v24
n.33333
o3
o2
n300
v9
o5
o2
o2
n35
v25
o0
n70
v25
n.33333
o3
o2
n1.8e2
v10
o5
o2
o2
n15
v26
o0
n30
v26
n.33333
o3
o2
n1.8e2
v11
o5
o2
o2
n90
v27
o0
n1.8e2
v27
n.33333
o2
n80
v10
o2
n80
v11
o2
n15
v8
o2
n15
v9
k51
5
10
15
20
25
30
35
40
43
46
49
52
53
55
56
57
59
60
61
63
64
65
67
68
69
70
71
72
77
85
92
97
105
112
119
127
132
139
147
152
155
158
161
164
167
170
173
176
177
178
179
J0 5
0 1
1 1
2 1
3 1
8 1
J1 5
4 1
5 1
6 1
7 1
9 1
J2 5
0 1
1 1
4 1
5 1
10 1
J3 5
2 1
3 1
6 1
7 1
11 1
J4 4
0 -1
2 -1
28 10
29 -10
J5 4
1 -1
3 -1
29 10
30 -10
J6 4
4 -1
6 -1
31 20
32 -20
J7 4
5 -1
7 -1
32 20
33 -20
J8 4
0 -1
4 -1
34 15
35 -15
J9 4
1 -1
5 -1
35 15
36 -15
J10 4
2 -1
6 -1
37 13
38 -13
J11 4
3 -1
7 -1
38 13
39 -13
J12 1
28 1
J13 1
31 1
J14 1
36 1
J15 1
39 1
J16 2
28 -1
29 1
J17 2
29 -1
30 1
J18 2
31 -1
32 1
J19 2
32 -1
33 1
J20 2
34 -1
35 1
J21 2
35 -1
36 1
J22 2
37 -1
38 1
J23 2
38 -1
39 1
J24 1
30 -1
J25 1
33 -1
J26 1
34 1
J27 1
37 1
J28 2
8 -1
30 10
J29 2
9 -1
33 20
J30 2
10 1
34 15
J31 2
11 1
37 13
J32 2
0 1
40 -2.8e3
J33 2
1 1
41 -2.8e3
J34 2
2 1
42 -1.95e3
J35 2
3 1
43 -1.95e3
J36 2
4 1
44 -3.6e3
J37 2
5 1
45 -3.6e3
J38 2
6 1
46 -1.95e3
J39 2
7 1
47 -1.95e3
J40 2
8 1
48 -2.8e3
J41 2
9 1
49 -4.4e3
J42 2
10 1
50 -3.6e3
J43 2
11 1
51 -1.95e3
J44 4
12 1
28 -1
34 1
40 2.8e2
J45 4
13 1
29 -1
35 1
41 1.3e2
J46 4
15 1
28 -1
37 1
42 2.8e2
J47 4
16 1
29 -1
38 1
43 1.5e2
J48 4
18 1
31 -1
34 1
44 2.8e2
J49 4
19 1
32 -1
35 1
45 1.3e2
J50 4
21 1
31 -1
37 1
46 2.8e2
J51 4
22 1
32 -1
38 1
47 1.5e2
J52 4
13 1
29 -1
35 1
40 2.8e2
J53 4
14 1
30 -1
36 1
41 1.3e2
J54 4
16 1
29 -1
38 1
42 2.8e2
J55 4
17 1
30 -1
39 1
43 1.5e2
J56 4
19 1
32 -1
35 1
44 2.8e2
J57 4
20 1
33 -1
36 1
45 1.3e2
J58 4
22 1
32 -1
38 1
46 2.8e2
J59 4
23 1
33 -1
39 1
47 1.5e2
J60 2
24 1
30 -1
J61 2
25 1
33 -1
J62 2
26 1
34 1
J63 2
27 1
37 1
G0 40
0 0
1 0
2 0
3 0
4 0
5 0
6 0
7 0
8 0
9 0
10 0
11 0
12 0
13 0
14 0
15 0
16 0
17 0
18 0
19 0
20 0
21 0
22 0
23 0
24 0
25 0
26 0
27 0
40 5.5e3
41 5.5e3
42 5.5e3
43 5.5e3
44 5.5e3
45 5.5e3
46 5.5e3
47 5.5e3
48 5.5e3
49 5.5e3
50 5.5e3
51 5.5e3
